100
3 32
27 20
0 10
16 68
12 48
18 28
12 32
5 21
13 59
18 91
9 54
19 27
14 9
16 74
17 49
21 76
29 0
2 30
18 49
17 18
19 83
25 37
29 51
0 12
4 52
28 18
27 95
16 80
24 31
10 73
1 1
23 13
3 50
21 67
5 94
7 0
20 36
17 44
17 49
23 49
27 13
10 63
23 16
28 16
21 49
20 80
24 43
15 55
22 89
3 49
29 60
6 60
5 91
22 36
25 14
19 45
21 5
1 91
9 4
24 21
14 1
16 56
4 48
19 93
22 86
8 73
25 44
25 47
15 42
28 28
25 20
17 87
8 38
15 99
2 90
11 49
7 26
16 39
12 21
0 16
29 27
3 10
7 26
9 10
0 92
25 77
17 68
18 42
23 47
27 53
4 66
4 80
19 12
15 71
27 4
13 97
8 28
4 58
20 65
0 75
